c 225_3_checker.cnf
c
c field = 225
c formula set type = 3_checker
c
p cnf 4 6
442 
444 
446 
-440 
443 
445 
447 
-441 
358 
388 
418 
-328 
359 
389 
419 
-329 
352 
384 
416 
-320 
353 
385 
417 
-321 
